33D32945 STP File, STP Format Version 1.0

SECTION Comments
Name "shell_n14_d2_s28"
Problem "Euclidean Steiner Tree Problem"
Remark "Generated with STPGenerator. 2 dimensions."
END

SECTION Graph
Nodes 14
END

SECTION Coordinates
DD 0 0.0376721020 -0.9992901544
DD 1 -0.6355571478 -0.7720538271
DD 2 -0.8743134378 0.4853617336
DD 3 -0.9998710553 -0.0160584193
DD 4 0.9105263909 -0.4134509541
DD 5 0.5576383678 0.8300840022
DD 6 0.9976237965 -0.0688967388
DD 7 -0.7760952174 0.6306157416
DD 8 -0.3797363274 0.9250947636
DD 9 -0.4873559632 0.8732033928
DD 10 0.9941239872 0.1082473929
DD 11 -0.5696455614 -0.8218904637
DD 12 0.9509625996 -0.3093058910
DD 13 -0.8849102558 -0.4657615690
END
